NAME : XML100_3122_11
DIMENSION : 101
NB_CLUSTERS : 4
CLUSTERING_ALG : KMedoids
CLUSTERING_PARAMS : k(3)
CLUSTERS
1 0
2 2 3 4 13 15 16 18 20 25 27 29 31 33 35 40 44 45 49 53 55 56 62 65 68 71 73 78 82 83 86 89 96 98 100
3 6 9 10 11 12 19 21 22 23 24 26 34 38 39 42 43 47 51 52 57 58 63 66 67 69 70 77 79 80 81 93 95
4 1 5 7 8 14 17 28 30 32 36 37 41 46 48 50 54 59 60 61 64 72 74 75 76 84 85 87 88 90 91 92 94 97 99
EOF